param n := 3;
set S[1] := 1 2 3 4 5 6 7 8 9 10;
set S[2] := 1 2 3 4 5 6 7 8 9 10;
set S[3] := 1 2 3 4 5 6 7 8 9 10;

param A :=
[*,1,1,1]  1 234 2 834 3 407
[*,2,1,1]  1 65 2 918 3 479
[*,3,1,1]  1 837 2 360 3 984
[*,4,1,1]  1 220 2 656 3 969
[*,5,1,1]  1 756 2 480 3 677
[*,6,1,1]  1 254 2 833 3 886
[*,7,1,1]  1 217 2 213 3 579
[*,8,1,1]  1 773 2 372 3 961
[*,9,1,1]  1 135 2 113 3 640
[*,10,1,1]  1 253 2 299 3 804
[*,1,2,1]  1 726 2 658 3 132
[*,2,2,1]  1 792 2 637 3 456
[*,3,2,1]  1 545 2 202 3 955
[*,4,2,1]  1 540 2 448 3 390
[*,5,2,1]  1 293 2 251 3 281
[*,6,2,1]  1 905 2 509 3 643
[*,7,2,1]  1 831 2 417 3 197
[*,8,2,1]  1 654 2 333 3 25
[*,9,2,1]  1 359 2 490 3 757
[*,10,2,1]  1 725 2 901 3 875
[*,1,3,1]  1 36 2 513 3 802
[*,2,3,1]  1 906 2 765 3 313
[*,3,3,1]  1 386 2 975 3 527
[*,4,3,1]  1 830 2 79 3 563
[*,5,3,1]  1 623 2 533 3 487
[*,6,3,1]  1 772 2 383 3 202
[*,7,3,1]  1 379 2 113 3 701
[*,8,3,1]  1 823 2 408 3 454
[*,9,3,1]  1 630 2 204 3 991
[*,10,3,1]  1 962 2 161 3 379
[*,1,4,1]  1 790 2 605 3 328
[*,2,4,1]  1 677 2 693 3 28
[*,3,4,1]  1 827 2 414 3 985
[*,4,4,1]  1 605 2 248 3 283
[*,5,4,1]  1 659 2 94 3 832
[*,6,4,1]  1 871 2 483 3 612
[*,7,4,1]  1 356 2 187 3 437
[*,8,4,1]  1 531 2 450 3 767
[*,9,4,1]  1 650 2 571 3 110
[*,10,4,1]  1 650 2 798 3 519
[*,1,5,1]  1 671 2 545 3 197
[*,2,5,1]  1 981 2 803 3 549
[*,3,5,1]  1 516 2 89 3 413
[*,4,5,1]  1 80 2 91 3 340
[*,5,5,1]  1 421 2 97 3 365
[*,6,5,1]  1 549 2 496 3 240
[*,7,5,1]  1 786 2 523 3 806
[*,8,5,1]  1 279 2 900 3 147
[*,9,5,1]  1 700 2 134 3 991
[*,10,5,1]  1 500 2 35 3 767
[*,1,6,1]  1 805 2 44 3 562
[*,2,6,1]  1 459 2 371 3 144
[*,3,6,1]  1 342 2 347 3 878
[*,4,6,1]  1 935 2 758 3 575
[*,5,6,1]  1 889 2 54 3 982
[*,6,6,1]  1 128 2 937 3 877
[*,7,6,1]  1 171 2 212 3 662
[*,8,6,1]  1 621 2 849 3 30
[*,9,6,1]  1 206 2 206 3 34
[*,10,6,1]  1 952 2 578 3 780
[*,1,7,1]  1 798 2 350 3 989
[*,2,7,1]  1 566 2 744 3 866
[*,3,7,1]  1 31 2 168 3 913
[*,4,7,1]  1 399 2 653 3 415
[*,5,7,1]  1 205 2 983 3 505
[*,6,7,1]  1 638 2 217 3 509
[*,7,7,1]  1 270 2 599 3 846
[*,8,7,1]  1 453 2 882 3 324
[*,9,7,1]  1 564 2 896 3 424
[*,10,7,1]  1 792 2 620 3 565
[*,1,8,1]  1 699 2 745 3 681
[*,2,8,1]  1 175 2 1000 3 920
[*,3,8,1]  1 670 2 4 3 751
[*,4,8,1]  1 618 2 632 3 540
[*,5,8,1]  1 9 2 870 3 450
[*,6,8,1]  1 16 2 712 3 375
[*,7,8,1]  1 166 2 861 3 761
[*,8,8,1]  1 94 2 480 3 338
[*,9,8,1]  1 720 2 551 3 694
[*,10,8,1]  1 247 2 896 3 923
[*,1,9,1]  1 47 2 66 3 87
[*,2,9,1]  1 535 2 880 3 825
[*,3,9,1]  1 123 2 661 3 507
[*,4,9,1]  1 855 2 567 3 372
[*,5,9,1]  1 100 2 752 3 692
[*,6,9,1]  1 836 2 10 3 69
[*,7,9,1]  1 847 2 574 3 245
[*,8,9,1]  1 749 2 891 3 137
[*,9,9,1]  1 806 2 818 3 202
[*,10,9,1]  1 156 2 590 3 653
[*,1,10,1]  1 144 2 903 3 449
[*,2,10,1]  1 974 2 487 3 349
[*,3,10,1]  1 757 2 774 3 500
[*,4,10,1]  1 226 2 561 3 618
[*,5,10,1]  1 867 2 687 3 976
[*,6,10,1]  1 65 2 544 3 34
[*,7,10,1]  1 969 2 513 3 6
[*,8,10,1]  1 446 2 140 3 393
[*,9,10,1]  1 70 2 681 3 365
[*,10,10,1]  1 530 2 603 3 629
[*,1,1,2]  1 419 2 393 3 30
[*,2,1,2]  1 922 2 850 3 151
[*,3,1,2]  1 454 2 946 3 360
[*,4,1,2]  1 724 2 587 3 347
[*,5,1,2]  1 938 2 459 3 498
[*,6,1,2]  1 516 2 792 3 704
[*,7,1,2]  1 292 2 589 3 945
[*,8,1,2]  1 251 2 480 3 238
[*,9,1,2]  1 950 2 623 3 735
[*,10,1,2]  1 894 2 810 3 168
[*,1,2,2]  1 188 2 29 3 608
[*,2,2,2]  1 230 2 154 3 904
[*,3,2,2]  1 773 2 993 3 426
[*,4,2,2]  1 401 2 180 3 184
[*,5,2,2]  1 877 2 704 3 466
[*,6,2,2]  1 501 2 144 3 79
[*,7,2,2]  1 44 2 474 3 572
[*,8,2,2]  1 494 2 330 3 522
[*,9,2,2]  1 426 2 611 3 561
[*,10,2,2]  1 85 2 677 3 448
[*,1,3,2]  1 439 2 90 3 217
[*,2,3,2]  1 187 2 547 3 431
[*,3,3,2]  1 505 2 601 3 101
[*,4,3,2]  1 845 2 23 3 118
[*,5,3,2]  1 166 2 307 3 863
[*,6,3,2]  1 841 2 867 3 55
[*,7,3,2]  1 955 2 676 3 508
[*,8,3,2]  1 419 2 202 3 349
[*,9,3,2]  1 777 2 950 3 818
[*,10,3,2]  1 267 2 300 3 709
[*,1,4,2]  1 642 2 54 3 999
[*,2,4,2]  1 187 2 188 3 141
[*,3,4,2]  1 540 2 35 3 367
[*,4,4,2]  1 950 2 181 3 683
[*,5,4,2]  1 616 2 72 3 991
[*,6,4,2]  1 971 2 253 3 331
[*,7,4,2]  1 168 2 120 3 399
[*,8,4,2]  1 754 2 815 3 710
[*,9,4,2]  1 723 2 325 3 914
[*,10,4,2]  1 846 2 620 3 836
[*,1,5,2]  1 813 2 401 3 168
[*,2,5,2]  1 248 2 721 3 996
[*,3,5,2]  1 335 2 830 3 2
[*,4,5,2]  1 381 2 474 3 662
[*,5,5,2]  1 177 2 41 3 123
[*,6,5,2]  1 323 2 553 3 105
[*,7,5,2]  1 439 2 181 3 384
[*,8,5,2]  1 111 2 410 3 227
[*,9,5,2]  1 277 2 788 3 162
[*,10,5,2]  1 389 2 340 3 759
[*,1,6,2]  1 229 2 995 3 198
[*,2,6,2]  1 15 2 681 3 424
[*,3,6,2]  1 621 2 60 3 373
[*,4,6,2]  1 33 2 916 3 867
[*,5,6,2]  1 411 2 79 3 681
[*,6,6,2]  1 188 2 86 3 769
[*,7,6,2]  1 757 2 287 3 209
[*,8,6,2]  1 497 2 418 3 858
[*,9,6,2]  1 741 2 47 3 968
[*,10,6,2]  1 768 2 74 3 782
[*,1,7,2]  1 856 2 282 3 153
[*,2,7,2]  1 860 2 410 3 558
[*,3,7,2]  1 823 2 124 3 42
[*,4,7,2]  1 553 2 500 3 574
[*,5,7,2]  1 521 2 981 3 268
[*,6,7,2]  1 270 2 565 3 552
[*,7,7,2]  1 968 2 146 3 508
[*,8,7,2]  1 566 2 717 3 392
[*,9,7,2]  1 247 2 837 3 590
[*,10,7,2]  1 11 2 36 3 75
[*,1,8,2]  1 812 2 733 3 935
[*,2,8,2]  1 99 2 949 3 608
[*,3,8,2]  1 881 2 640 3 57
[*,4,8,2]  1 575 2 447 3 130
[*,5,8,2]  1 639 2 747 3 275
[*,6,8,2]  1 563 2 545 3 374
[*,7,8,2]  1 92 2 397 3 712
[*,8,8,2]  1 293 2 989 3 545
[*,9,8,2]  1 692 2 148 3 332
[*,10,8,2]  1 667 2 481 3 840
[*,1,9,2]  1 297 2 351 3 56
[*,2,9,2]  1 446 2 466 3 290
[*,3,9,2]  1 403 2 359 3 413
[*,4,9,2]  1 192 2 503 3 469
[*,5,9,2]  1 461 2 55 3 938
[*,6,9,2]  1 21 2 50 3 336
[*,7,9,2]  1 298 2 207 3 273
[*,8,9,2]  1 754 2 560 3 646
[*,9,9,2]  1 161 2 720 3 914
[*,10,9,2]  1 633 2 288 3 844
[*,1,10,2]  1 373 2 485 3 41
[*,2,10,2]  1 588 2 597 3 311
[*,3,10,2]  1 731 2 878 3 976
[*,4,10,2]  1 307 2 322 3 421
[*,5,10,2]  1 24 2 7 3 168
[*,6,10,2]  1 557 2 514 3 980
[*,7,10,2]  1 581 2 665 3 556
[*,8,10,2]  1 108 2 466 3 592
[*,9,10,2]  1 104 2 999 3 539
[*,10,10,2]  1 55 2 918 3 951
[*,1,1,3]  1 805 2 733 3 42
[*,2,1,3]  1 704 2 119 3 530
[*,3,1,3]  1 358 2 387 3 633
[*,4,1,3]  1 634 2 472 3 99
[*,5,1,3]  1 822 2 11 3 575
[*,6,1,3]  1 181 2 658 3 443
[*,7,1,3]  1 456 2 506 3 163
[*,8,1,3]  1 586 2 960 3 34
[*,9,1,3]  1 240 2 249 3 605
[*,10,1,3]  1 507 2 191 3 829
[*,1,2,3]  1 971 2 360 3 815
[*,2,2,3]  1 804 2 700 3 876
[*,3,2,3]  1 267 2 320 3 677
[*,4,2,3]  1 120 2 181 3 133
[*,5,2,3]  1 988 2 463 3 655
[*,6,2,3]  1 595 2 785 3 309
[*,7,2,3]  1 810 2 970 3 65
[*,8,2,3]  1 239 2 614 3 69
[*,9,2,3]  1 674 2 914 3 479
[*,10,2,3]  1 109 2 536 3 944
[*,1,3,3]  1 10 2 700 3 278
[*,2,3,3]  1 437 2 911 3 124
[*,3,3,3]  1 863 2 64 3 676
[*,4,3,3]  1 391 2 834 3 318
[*,5,3,3]  1 224 2 48 3 87
[*,6,3,3]  1 90 2 991 3 449
[*,7,3,3]  1 804 2 823 3 348
[*,8,3,3]  1 952 2 356 3 252
[*,9,3,3]  1 458 2 550 3 538
[*,10,3,3]  1 240 2 738 3 525
[*,1,4,3]  1 411 2 202 3 226
[*,2,4,3]  1 50 2 459 3 480
[*,3,4,3]  1 18 2 98 3 479
[*,4,4,3]  1 342 2 822 3 617
[*,5,4,3]  1 829 2 376 3 425
[*,6,4,3]  1 709 2 241 3 767
[*,7,4,3]  1 558 2 457 3 394
[*,8,4,3]  1 303 2 130 3 127
[*,9,4,3]  1 804 2 5 3 389
[*,10,4,3]  1 686 2 470 3 929
[*,1,5,3]  1 849 2 998 3 831
[*,2,5,3]  1 51 2 163 3 572
[*,3,5,3]  1 252 2 175 3 313
[*,4,5,3]  1 454 2 298 3 353
[*,5,5,3]  1 538 2 701 3 409
[*,6,5,3]  1 748 2 499 3 894
[*,7,5,3]  1 512 2 747 3 32
[*,8,5,3]  1 321 2 266 3 770
[*,9,5,3]  1 690 2 775 3 337
[*,10,5,3]  1 532 2 966 3 390
[*,1,6,3]  1 119 2 403 3 779
[*,2,6,3]  1 603 2 799 3 143
[*,3,6,3]  1 258 2 88 3 489
[*,4,6,3]  1 508 2 388 3 483
[*,5,6,3]  1 494 2 130 3 345
[*,6,6,3]  1 827 2 352 3 672
[*,7,6,3]  1 691 2 893 3 484
[*,8,6,3]  1 389 2 676 3 12
[*,9,6,3]  1 675 2 211 3 32
[*,10,6,3]  1 573 2 592 3 882
[*,1,7,3]  1 560 2 91 3 771
[*,2,7,3]  1 959 2 735 3 669
[*,3,7,3]  1 278 2 265 3 320
[*,4,7,3]  1 647 2 305 3 919
[*,5,7,3]  1 673 2 531 3 535
[*,6,7,3]  1 165 2 18 3 554
[*,7,7,3]  1 989 2 141 3 509
[*,8,7,3]  1 805 2 451 3 36
[*,9,7,3]  1 223 2 486 3 256
[*,10,7,3]  1 376 2 682 3 718
[*,1,8,3]  1 401 2 817 3 560
[*,2,8,3]  1 264 2 496 3 345
[*,3,8,3]  1 521 2 701 3 3
[*,4,8,3]  1 844 2 43 3 849
[*,5,8,3]  1 611 2 720 3 104
[*,6,8,3]  1 737 2 308 3 727
[*,7,8,3]  1 422 2 962 3 983
[*,8,8,3]  1 132 2 706 3 86
[*,9,8,3]  1 854 2 141 3 20
[*,10,8,3]  1 634 2 119 3 808
[*,1,9,3]  1 969 2 287 3 548
[*,2,9,3]  1 751 2 820 3 190
[*,3,9,3]  1 558 2 631 3 146
[*,4,9,3]  1 559 2 540 3 702
[*,5,9,3]  1 772 2 430 3 801
[*,6,9,3]  1 756 2 45 3 18
[*,7,9,3]  1 492 2 420 3 576
[*,8,9,3]  1 39 2 360 3 74
[*,9,9,3]  1 509 2 358 3 956
[*,10,9,3]  1 649 2 411 3 496
[*,1,10,3]  1 188 2 127 3 578
[*,2,10,3]  1 855 2 761 3 942
[*,3,10,3]  1 359 2 985 3 64
[*,4,10,3]  1 288 2 679 3 886
[*,5,10,3]  1 589 2 63 3 509
[*,6,10,3]  1 98 2 725 3 313
[*,7,10,3]  1 454 2 320 3 173
[*,8,10,3]  1 14 2 986 3 346
[*,9,10,3]  1 788 2 576 3 103
[*,10,10,3]  1 453 2 789 3 625
[*,1,1,4]  1 376 2 719 3 793
[*,2,1,4]  1 576 2 345 3 351
[*,3,1,4]  1 958 2 935 3 313
[*,4,1,4]  1 866 2 876 3 552
[*,5,1,4]  1 351 2 781 3 553
[*,6,1,4]  1 810 2 184 3 615
[*,7,1,4]  1 902 2 280 3 299
[*,8,1,4]  1 92 2 728 3 507
[*,9,1,4]  1 215 2 890 3 100
[*,10,1,4]  1 392 2 363 3 721
[*,1,2,4]  1 329 2 138 3 419
[*,2,2,4]  1 258 2 507 3 794
[*,3,2,4]  1 292 2 183 3 746
[*,4,2,4]  1 254 2 134 3 672
[*,5,2,4]  1 747 2 10 3 923
[*,6,2,4]  1 731 2 342 3 980
[*,7,2,4]  1 162 2 123 3 986
[*,8,2,4]  1 561 2 234 3 36
[*,9,2,4]  1 934 2 435 3 719
[*,10,2,4]  1 282 2 81 3 660
[*,1,3,4]  1 830 2 578 3 937
[*,2,3,4]  1 390 2 708 3 345
[*,3,3,4]  1 243 2 863 3 932
[*,4,3,4]  1 596 2 169 3 348
[*,5,3,4]  1 41 2 638 3 741
[*,6,3,4]  1 462 2 277 3 784
[*,7,3,4]  1 437 2 528 3 7
[*,8,3,4]  1 740 2 480 3 736
[*,9,3,4]  1 512 2 92 3 348
[*,10,3,4]  1 452 2 905 3 135
[*,1,4,4]  1 487 2 361 3 947
[*,2,4,4]  1 308 2 35 3 91
[*,3,4,4]  1 455 2 687 3 591
[*,4,4,4]  1 588 2 802 3 283
[*,5,4,4]  1 707 2 777 3 719
[*,6,4,4]  1 411 2 880 3 4
[*,7,4,4]  1 289 2 975 3 192
[*,8,4,4]  1 330 2 495 3 378
[*,9,4,4]  1 709 2 971 3 157
[*,10,4,4]  1 680 2 931 3 137
[*,1,5,4]  1 469 2 702 3 327
[*,2,5,4]  1 49 2 542 3 120
[*,3,5,4]  1 54 2 94 3 566
[*,4,5,4]  1 929 2 407 3 36
[*,5,5,4]  1 264 2 261 3 515
[*,6,5,4]  1 656 2 266 3 324
[*,7,5,4]  1 44 2 392 3 923
[*,8,5,4]  1 5 2 402 3 437
[*,9,5,4]  1 877 2 843 3 24
[*,10,5,4]  1 178 2 382 3 183
[*,1,6,4]  1 911 2 69 3 971
[*,2,6,4]  1 772 2 395 3 828
[*,3,6,4]  1 556 2 443 3 605
[*,4,6,4]  1 273 2 516 3 359
[*,5,6,4]  1 659 2 324 3 552
[*,6,6,4]  1 972 2 927 3 354
[*,7,6,4]  1 405 2 914 3 134
[*,8,6,4]  1 630 2 589 3 172
[*,9,6,4]  1 105 2 580 3 389
[*,10,6,4]  1 149 2 281 3 433
[*,1,7,4]  1 259 2 698 3 914
[*,2,7,4]  1 139 2 650 3 820
[*,3,7,4]  1 43 2 565 3 25
[*,4,7,4]  1 478 2 921 3 654
[*,5,7,4]  1 494 2 876 3 514
[*,6,7,4]  1 647 2 55 3 654
[*,7,7,4]  1 202 2 429 3 919
[*,8,7,4]  1 691 2 463 3 822
[*,9,7,4]  1 758 2 536 3 652
[*,10,7,4]  1 922 2 21 3 119
[*,1,8,4]  1 544 2 629 3 635
[*,2,8,4]  1 9 2 330 3 119
[*,3,8,4]  1 512 2 401 3 213
[*,4,8,4]  1 375 2 314 3 5
[*,5,8,4]  1 538 2 793 3 793
[*,6,8,4]  1 178 2 680 3 572
[*,7,8,4]  1 872 2 957 3 521
[*,8,8,4]  1 822 2 361 3 163
[*,9,8,4]  1 417 2 271 3 809
[*,10,8,4]  1 356 2 1 3 68
[*,1,9,4]  1 525 2 207 3 58
[*,2,9,4]  1 389 2 304 3 844
[*,3,9,4]  1 943 2 481 3 647
[*,4,9,4]  1 795 2 712 3 339
[*,5,9,4]  1 595 2 433 3 235
[*,6,9,4]  1 405 2 436 3 242
[*,7,9,4]  1 996 2 572 3 595
[*,8,9,4]  1 802 2 231 3 300
[*,9,9,4]  1 2 2 106 3 358
[*,10,9,4]  1 831 2 137 3 764
[*,1,10,4]  1 294 2 319 3 674
[*,2,10,4]  1 581 2 470 3 231
[*,3,10,4]  1 426 2 349 3 791
[*,4,10,4]  1 462 2 805 3 902
[*,5,10,4]  1 743 2 480 3 578
[*,6,10,4]  1 97 2 214 3 250
[*,7,10,4]  1 79 2 19 3 273
[*,8,10,4]  1 812 2 366 3 498
[*,9,10,4]  1 348 2 151 3 32
[*,10,10,4]  1 82 2 776 3 496
[*,1,1,5]  1 517 2 690 3 652
[*,2,1,5]  1 173 2 785 3 463
[*,3,1,5]  1 281 2 978 3 191
[*,4,1,5]  1 837 2 297 3 382
[*,5,1,5]  1 224 2 385 3 682
[*,6,1,5]  1 981 2 499 3 817
[*,7,1,5]  1 534 2 257 3 138
[*,8,1,5]  1 394 2 389 3 182
[*,9,1,5]  1 161 2 108 3 296
[*,10,1,5]  1 121 2 5 3 208
[*,1,2,5]  1 689 2 261 3 702
[*,2,2,5]  1 38 2 242 3 83
[*,3,2,5]  1 470 2 706 3 575
[*,4,2,5]  1 411 2 749 3 773
[*,5,2,5]  1 642 2 214 3 705
[*,6,2,5]  1 73 2 107 3 666
[*,7,2,5]  1 342 2 692 3 799
[*,8,2,5]  1 905 2 179 3 395
[*,9,2,5]  1 621 2 592 3 336
[*,10,2,5]  1 60 2 914 3 612
[*,1,3,5]  1 548 2 182 3 304
[*,2,3,5]  1 209 2 279 3 122
[*,3,3,5]  1 588 2 462 3 661
[*,4,3,5]  1 627 2 974 3 194
[*,5,3,5]  1 363 2 14 3 380
[*,6,3,5]  1 398 2 934 3 601
[*,7,3,5]  1 77 2 720 3 329
[*,8,3,5]  1 159 2 87 3 851
[*,9,3,5]  1 559 2 653 3 244
[*,10,3,5]  1 496 2 425 3 14
[*,1,4,5]  1 691 2 118 3 300
[*,2,4,5]  1 548 2 916 3 871
[*,3,4,5]  1 785 2 328 3 124
[*,4,4,5]  1 936 2 861 3 96
[*,5,4,5]  1 864 2 26 3 843
[*,6,4,5]  1 301 2 316 3 911
[*,7,4,5]  1 58 2 303 3 659
[*,8,4,5]  1 662 2 646 3 293
[*,9,4,5]  1 145 2 817 3 308
[*,10,4,5]  1 105 2 369 3 688
[*,1,5,5]  1 176 2 974 3 275
[*,2,5,5]  1 928 2 124 3 221
[*,3,5,5]  1 54 2 811 3 51
[*,4,5,5]  1 51 2 11 3 850
[*,5,5,5]  1 662 2 864 3 853
[*,6,5,5]  1 52 2 205 3 992
[*,7,5,5]  1 625 2 578 3 517
[*,8,5,5]  1 365 2 705 3 571
[*,9,5,5]  1 426 2 353 3 812
[*,10,5,5]  1 712 2 274 3 962
[*,1,6,5]  1 32 2 332 3 857
[*,2,6,5]  1 650 2 215 3 50
[*,3,6,5]  1 551 2 254 3 904
[*,4,6,5]  1 487 2 822 3 870
[*,5,6,5]  1 191 2 22 3 512
[*,6,6,5]  1 141 2 491 3 528
[*,7,6,5]  1 597 2 55 3 225
[*,8,6,5]  1 651 2 106 3 215
[*,9,6,5]  1 883 2 559 3 982
[*,10,6,5]  1 592 2 707 3 15
[*,1,7,5]  1 504 2 900 3 538
[*,2,7,5]  1 253 2 784 3 80
[*,3,7,5]  1 957 2 428 3 479
[*,4,7,5]  1 861 2 938 3 346
[*,5,7,5]  1 597 2 972 3 697
[*,6,7,5]  1 755 2 720 3 445
[*,7,7,5]  1 234 2 730 3 462
[*,8,7,5]  1 313 2 401 3 616
[*,9,7,5]  1 314 2 169 3 956
[*,10,7,5]  1 491 2 283 3 301
[*,1,8,5]  1 170 2 408 3 885
[*,2,8,5]  1 535 2 48 3 469
[*,3,8,5]  1 130 2 490 3 86
[*,4,8,5]  1 361 2 125 3 685
[*,5,8,5]  1 836 2 168 3 753
[*,6,8,5]  1 831 2 216 3 74
[*,7,8,5]  1 722 2 666 3 663
[*,8,8,5]  1 114 2 959 3 922
[*,9,8,5]  1 674 2 264 3 890
[*,10,8,5]  1 328 2 305 3 965
[*,1,9,5]  1 698 2 119 3 438
[*,2,9,5]  1 651 2 29 3 124
[*,3,9,5]  1 425 2 979 3 963
[*,4,9,5]  1 403 2 841 3 211
[*,5,9,5]  1 228 2 322 3 630
[*,6,9,5]  1 673 2 887 3 134
[*,7,9,5]  1 898 2 255 3 593
[*,8,9,5]  1 412 2 943 3 734
[*,9,9,5]  1 634 2 115 3 924
[*,10,9,5]  1 12 2 670 3 725
[*,1,10,5]  1 717 2 528 3 959
[*,2,10,5]  1 579 2 85 3 711
[*,3,10,5]  1 419 2 522 3 319
[*,4,10,5]  1 799 2 534 3 12
[*,5,10,5]  1 839 2 339 3 494
[*,6,10,5]  1 87 2 111 3 358
[*,7,10,5]  1 430 2 963 3 410
[*,8,10,5]  1 559 2 814 3 588
[*,9,10,5]  1 543 2 890 3 336
[*,10,10,5]  1 198 2 762 3 463
[*,1,1,6]  1 657 2 715 3 399
[*,2,1,6]  1 159 2 407 3 910
[*,3,1,6]  1 704 2 147 3 784
[*,4,1,6]  1 390 2 513 3 248
[*,5,1,6]  1 833 2 792 3 87
[*,6,1,6]  1 297 2 299 3 41
[*,7,1,6]  1 483 2 608 3 505
[*,8,1,6]  1 207 2 253 3 248
[*,9,1,6]  1 275 2 228 3 207
[*,10,1,6]  1 50 2 390 3 780
[*,1,2,6]  1 153 2 229 3 339
[*,2,2,6]  1 627 2 272 3 986
[*,3,2,6]  1 472 2 88 3 842
[*,4,2,6]  1 741 2 745 3 656
[*,5,2,6]  1 509 2 487 3 372
[*,6,2,6]  1 357 2 230 3 272
[*,7,2,6]  1 641 2 253 3 259
[*,8,2,6]  1 37 2 25 3 258
[*,9,2,6]  1 318 2 838 3 551
[*,10,2,6]  1 579 2 160 3 13
[*,1,3,6]  1 9 2 261 3 290
[*,2,3,6]  1 998 2 271 3 653
[*,3,3,6]  1 490 2 256 3 395
[*,4,3,6]  1 147 2 184 3 366
[*,5,3,6]  1 701 2 218 3 375
[*,6,3,6]  1 297 2 236 3 585
[*,7,3,6]  1 36 2 781 3 335
[*,8,3,6]  1 328 2 427 3 89
[*,9,3,6]  1 61 2 924 3 696
[*,10,3,6]  1 600 2 402 3 434
[*,1,4,6]  1 582 2 310 3 973
[*,2,4,6]  1 585 2 710 3 846
[*,3,4,6]  1 895 2 1 3 216
[*,4,4,6]  1 572 2 220 3 717
[*,5,4,6]  1 992 2 133 3 969
[*,6,4,6]  1 912 2 829 3 124
[*,7,4,6]  1 374 2 976 3 156
[*,8,4,6]  1 606 2 468 3 172
[*,9,4,6]  1 840 2 887 3 437
[*,10,4,6]  1 608 2 736 3 321
[*,1,5,6]  1 543 2 716 3 315
[*,2,5,6]  1 870 2 534 3 212
[*,3,5,6]  1 671 2 812 3 615
[*,4,5,6]  1 286 2 661 3 351
[*,5,5,6]  1 20 2 833 3 782
[*,6,5,6]  1 758 2 164 3 705
[*,7,5,6]  1 583 2 363 3 141
[*,8,5,6]  1 264 2 110 3 995
[*,9,5,6]  1 96 2 18 3 878
[*,10,5,6]  1 328 2 593 3 742
[*,1,6,6]  1 356 2 306 3 655
[*,2,6,6]  1 307 2 841 3 932
[*,3,6,6]  1 600 2 371 3 774
[*,4,6,6]  1 712 2 128 3 172
[*,5,6,6]  1 351 2 561 3 379
[*,6,6,6]  1 988 2 263 3 192
[*,7,6,6]  1 849 2 166 3 937
[*,8,6,6]  1 890 2 98 3 292
[*,9,6,6]  1 546 2 95 3 200
[*,10,6,6]  1 692 2 349 3 439
[*,1,7,6]  1 691 2 455 3 606
[*,2,7,6]  1 631 2 647 3 139
[*,3,7,6]  1 483 2 207 3 144
[*,4,7,6]  1 541 2 831 3 203
[*,5,7,6]  1 996 2 277 3 664
[*,6,7,6]  1 685 2 125 3 430
[*,7,7,6]  1 526 2 515 3 408
[*,8,7,6]  1 169 2 613 3 850
[*,9,7,6]  1 50 2 111 3 726
[*,10,7,6]  1 659 2 878 3 133
[*,1,8,6]  1 643 2 969 3 971
[*,2,8,6]  1 505 2 470 3 650
[*,3,8,6]  1 169 2 517 3 887
[*,4,8,6]  1 288 2 879 3 191
[*,5,8,6]  1 992 2 107 3 466
[*,6,8,6]  1 309 2 601 3 949
[*,7,8,6]  1 310 2 721 3 467
[*,8,8,6]  1 44 2 197 3 851
[*,9,8,6]  1 851 2 697 3 342
[*,10,8,6]  1 359 2 276 3 969
[*,1,9,6]  1 797 2 169 3 132
[*,2,9,6]  1 238 2 352 3 453
[*,3,9,6]  1 933 2 749 3 376
[*,4,9,6]  1 709 2 724 3 310
[*,5,9,6]  1 167 2 777 3 114
[*,6,9,6]  1 976 2 555 3 467
[*,7,9,6]  1 820 2 796 3 443
[*,8,9,6]  1 530 2 483 3 736
[*,9,9,6]  1 925 2 819 3 748
[*,10,9,6]  1 475 2 404 3 865
[*,1,10,6]  1 191 2 41 3 901
[*,2,10,6]  1 534 2 829 3 241
[*,3,10,6]  1 302 2 91 3 283
[*,4,10,6]  1 351 2 941 3 778
[*,5,10,6]  1 664 2 861 3 203
[*,6,10,6]  1 969 2 387 3 903
[*,7,10,6]  1 366 2 85 3 911
[*,8,10,6]  1 606 2 968 3 691
[*,9,10,6]  1 399 2 798 3 288
[*,10,10,6]  1 608 2 850 3 357
[*,1,1,7]  1 544 2 514 3 72
[*,2,1,7]  1 71 2 350 3 135
[*,3,1,7]  1 284 2 993 3 931
[*,4,1,7]  1 121 2 682 3 175
[*,5,1,7]  1 309 2 662 3 587
[*,6,1,7]  1 143 2 421 3 148
[*,7,1,7]  1 198 2 597 3 672
[*,8,1,7]  1 528 2 927 3 676
[*,9,1,7]  1 999 2 501 3 659
[*,10,1,7]  1 578 2 869 3 395
[*,1,2,7]  1 990 2 433 3 991
[*,2,2,7]  1 370 2 628 3 114
[*,3,2,7]  1 731 2 580 3 746
[*,4,2,7]  1 122 2 349 3 76
[*,5,2,7]  1 961 2 733 3 228
[*,6,2,7]  1 510 2 54 3 391
[*,7,2,7]  1 168 2 148 3 262
[*,8,2,7]  1 703 2 731 3 336
[*,9,2,7]  1 159 2 436 3 301
[*,10,2,7]  1 276 2 752 3 694
[*,1,3,7]  1 261 2 950 3 381
[*,2,3,7]  1 738 2 190 3 31
[*,3,3,7]  1 420 2 37 3 498
[*,4,3,7]  1 942 2 558 3 732
[*,5,3,7]  1 283 2 502 3 691
[*,6,3,7]  1 87 2 493 3 264
[*,7,3,7]  1 18 2 518 3 626
[*,8,3,7]  1 238 2 991 3 357
[*,9,3,7]  1 370 2 622 3 168
[*,10,3,7]  1 931 2 521 3 150
[*,1,4,7]  1 906 2 410 3 469
[*,2,4,7]  1 843 2 961 3 548
[*,3,4,7]  1 349 2 247 3 862
[*,4,4,7]  1 709 2 680 3 782
[*,5,4,7]  1 815 2 486 3 922
[*,6,4,7]  1 382 2 488 3 865
[*,7,4,7]  1 968 2 494 3 793
[*,8,4,7]  1 42 2 974 3 365
[*,9,4,7]  1 108 2 15 3 307
[*,10,4,7]  1 715 2 62 3 535
[*,1,5,7]  1 669 2 124 3 14
[*,2,5,7]  1 269 2 533 3 910
[*,3,5,7]  1 973 2 912 3 227
[*,4,5,7]  1 786 2 464 3 436
[*,5,5,7]  1 828 2 422 3 268
[*,6,5,7]  1 967 2 25 3 815
[*,7,5,7]  1 575 2 497 3 848
[*,8,5,7]  1 475 2 264 3 239
[*,9,5,7]  1 809 2 641 3 538
[*,10,5,7]  1 519 2 727 3 55
[*,1,6,7]  1 20 2 933 3 848
[*,2,6,7]  1 375 2 830 3 975
[*,3,6,7]  1 429 2 954 3 815
[*,4,6,7]  1 433 2 179 3 540
[*,5,6,7]  1 334 2 668 3 212
[*,6,6,7]  1 461 2 474 3 266
[*,7,6,7]  1 288 2 940 3 585
[*,8,6,7]  1 734 2 169 3 526
[*,9,6,7]  1 365 2 555 3 823
[*,10,6,7]  1 86 2 509 3 404
[*,1,7,7]  1 100 2 346 3 78
[*,2,7,7]  1 339 2 237 3 802
[*,3,7,7]  1 386 2 511 3 197
[*,4,7,7]  1 704 2 127 3 316
[*,5,7,7]  1 457 2 902 3 922
[*,6,7,7]  1 928 2 281 3 550
[*,7,7,7]  1 202 2 841 3 937
[*,8,7,7]  1 114 2 629 3 398
[*,9,7,7]  1 577 2 593 3 782
[*,10,7,7]  1 267 2 711 3 616
[*,1,8,7]  1 938 2 480 3 271
[*,2,8,7]  1 939 2 151 3 977
[*,3,8,7]  1 326 2 826 3 696
[*,4,8,7]  1 539 2 336 3 28
[*,5,8,7]  1 136 2 643 3 745
[*,6,8,7]  1 368 2 13 3 9
[*,7,8,7]  1 351 2 405 3 84
[*,8,8,7]  1 605 2 587 3 342
[*,9,8,7]  1 602 2 388 3 330
[*,10,8,7]  1 75 2 924 3 398
[*,1,9,7]  1 343 2 278 3 44
[*,2,9,7]  1 639 2 773 3 486
[*,3,9,7]  1 316 2 792 3 391
[*,4,9,7]  1 449 2 676 3 9
[*,5,9,7]  1 435 2 386 3 240
[*,6,9,7]  1 913 2 956 3 413
[*,7,9,7]  1 986 2 424 3 564
[*,8,9,7]  1 89 2 523 3 286
[*,9,9,7]  1 359 2 948 3 741
[*,10,9,7]  1 934 2 572 3 920
[*,1,10,7]  1 139 2 874 3 189
[*,2,10,7]  1 747 2 233 3 928
[*,3,10,7]  1 403 2 838 3 336
[*,4,10,7]  1 437 2 228 3 551
[*,5,10,7]  1 335 2 55 3 65
[*,6,10,7]  1 536 2 856 3 831
[*,7,10,7]  1 277 2 595 3 294
[*,8,10,7]  1 81 2 83 3 522
[*,9,10,7]  1 838 2 17 3 224
[*,10,10,7]  1 503 2 436 3 99
[*,1,1,8]  1 838 2 942 3 183
[*,2,1,8]  1 934 2 981 3 55
[*,3,1,8]  1 204 2 860 3 54
[*,4,1,8]  1 177 2 440 3 490
[*,5,1,8]  1 137 2 443 3 212
[*,6,1,8]  1 116 2 920 3 500
[*,7,1,8]  1 501 2 338 3 466
[*,8,1,8]  1 923 2 230 3 243
[*,9,1,8]  1 548 2 257 3 674
[*,10,1,8]  1 188 2 616 3 6
[*,1,2,8]  1 291 2 545 3 818
[*,2,2,8]  1 415 2 930 3 796
[*,3,2,8]  1 632 2 595 3 333
[*,4,2,8]  1 992 2 787 3 432
[*,5,2,8]  1 355 2 928 3 151
[*,6,2,8]  1 668 2 52 3 318
[*,7,2,8]  1 191 2 764 3 145
[*,8,2,8]  1 907 2 389 3 472
[*,9,2,8]  1 909 2 711 3 770
[*,10,2,8]  1 499 2 657 3 543
[*,1,3,8]  1 285 2 310 3 432
[*,2,3,8]  1 521 2 374 3 906
[*,3,3,8]  1 336 2 564 3 410
[*,4,3,8]  1 342 2 288 3 730
[*,5,3,8]  1 149 2 904 3 577
[*,6,3,8]  1 849 2 515 3 50
[*,7,3,8]  1 751 2 102 3 223
[*,8,3,8]  1 741 2 797 3 64
[*,9,3,8]  1 820 2 249 3 519
[*,10,3,8]  1 266 2 682 3 375
[*,1,4,8]  1 290 2 530 3 408
[*,2,4,8]  1 791 2 63 3 132
[*,3,4,8]  1 800 2 349 3 669
[*,4,4,8]  1 393 2 354 3 359
[*,5,4,8]  1 907 2 405 3 764
[*,6,4,8]  1 174 2 907 3 451
[*,7,4,8]  1 423 2 5 3 529
[*,8,4,8]  1 111 2 386 3 477
[*,9,4,8]  1 337 2 191 3 477
[*,10,4,8]  1 304 2 827 3 368
[*,1,5,8]  1 546 2 456 3 113
[*,2,5,8]  1 901 2 941 3 282
[*,3,5,8]  1 286 2 838 3 330
[*,4,5,8]  1 392 2 956 3 897
[*,5,5,8]  1 944 2 525 3 313
[*,6,5,8]  1 589 2 139 3 246
[*,7,5,8]  1 222 2 250 3 997
[*,8,5,8]  1 82 2 375 3 311
[*,9,5,8]  1 223 2 609 3 623
[*,10,5,8]  1 552 2 328 3 93
[*,1,6,8]  1 911 2 90 3 394
[*,2,6,8]  1 527 2 101 3 556
[*,3,6,8]  1 225 2 253 3 149
[*,4,6,8]  1 206 2 911 3 967
[*,5,6,8]  1 710 2 807 3 12
[*,6,6,8]  1 530 2 295 3 659
[*,7,6,8]  1 759 2 942 3 510
[*,8,6,8]  1 560 2 514 3 772
[*,9,6,8]  1 729 2 377 3 833
[*,10,6,8]  1 574 2 819 3 578
[*,1,7,8]  1 123 2 99 3 168
[*,2,7,8]  1 319 2 734 3 606
[*,3,7,8]  1 322 2 648 3 851
[*,4,7,8]  1 228 2 962 3 926
[*,5,7,8]  1 202 2 125 3 896
[*,6,7,8]  1 893 2 931 3 110
[*,7,7,8]  1 922 2 617 3 393
[*,8,7,8]  1 543 2 144 3 206
[*,9,7,8]  1 897 2 552 3 410
[*,10,7,8]  1 318 2 508 3 66
[*,1,8,8]  1 990 2 409 3 198
[*,2,8,8]  1 689 2 562 3 191
[*,3,8,8]  1 498 2 216 3 837
[*,4,8,8]  1 927 2 752 3 469
[*,5,8,8]  1 853 2 49 3 853
[*,6,8,8]  1 131 2 142 3 111
[*,7,8,8]  1 6 2 544 3 418
[*,8,8,8]  1 157 2 686 3 694
[*,9,8,8]  1 413 2 512 3 436
[*,10,8,8]  1 199 2 810 3 362
[*,1,9,8]  1 626 2 745 3 944
[*,2,9,8]  1 678 2 511 3 229
[*,3,9,8]  1 109 2 786 3 244
[*,4,9,8]  1 908 2 854 3 337
[*,5,9,8]  1 572 2 900 3 583
[*,6,9,8]  1 511 2 3 3 782
[*,7,9,8]  1 209 2 28 3 172
[*,8,9,8]  1 382 2 286 3 984
[*,9,9,8]  1 971 2 541 3 296
[*,10,9,8]  1 511 2 779 3 331
[*,1,10,8]  1 321 2 82 3 784
[*,2,10,8]  1 192 2 322 3 546
[*,3,10,8]  1 939 2 457 3 640
[*,4,10,8]  1 71 2 604 3 21
[*,5,10,8]  1 132 2 875 3 268
[*,6,10,8]  1 281 2 600 3 870
[*,7,10,8]  1 52 2 996 3 705
[*,8,10,8]  1 473 2 888 3 445
[*,9,10,8]  1 679 2 374 3 352
[*,10,10,8]  1 130 2 496 3 426
[*,1,1,9]  1 155 2 211 3 25
[*,2,1,9]  1 781 2 184 3 122
[*,3,1,9]  1 942 2 989 3 822
[*,4,1,9]  1 83 2 784 3 94
[*,5,1,9]  1 986 2 721 3 639
[*,6,1,9]  1 672 2 967 3 647
[*,7,1,9]  1 352 2 321 3 670
[*,8,1,9]  1 646 2 46 3 451
[*,9,1,9]  1 321 2 55 3 17
[*,10,1,9]  1 4 2 27 3 55
[*,1,2,9]  1 715 2 395 3 863
[*,2,2,9]  1 806 2 626 3 109
[*,3,2,9]  1 279 2 841 3 377
[*,4,2,9]  1 331 2 759 3 669
[*,5,2,9]  1 223 2 424 3 520
[*,6,2,9]  1 252 2 443 3 360
[*,7,2,9]  1 65 2 967 3 845
[*,8,2,9]  1 953 2 57 3 644
[*,9,2,9]  1 685 2 306 3 763
[*,10,2,9]  1 535 2 871 3 9
[*,1,3,9]  1 867 2 347 3 180
[*,2,3,9]  1 438 2 995 3 73
[*,3,3,9]  1 633 2 965 3 652
[*,4,3,9]  1 947 2 817 3 38
[*,5,3,9]  1 647 2 728 3 189
[*,6,3,9]  1 842 2 266 3 469
[*,7,3,9]  1 878 2 659 3 601
[*,8,3,9]  1 80 2 449 3 244
[*,9,3,9]  1 465 2 270 3 561
[*,10,3,9]  1 131 2 291 3 936
[*,1,4,9]  1 67 2 304 3 228
[*,2,4,9]  1 626 2 431 3 688
[*,3,4,9]  1 425 2 531 3 798
[*,4,4,9]  1 602 2 155 3 297
[*,5,4,9]  1 137 2 750 3 982
[*,6,4,9]  1 97 2 210 3 284
[*,7,4,9]  1 659 2 605 3 939
[*,8,4,9]  1 229 2 845 3 879
[*,9,4,9]  1 970 2 828 3 950
[*,10,4,9]  1 761 2 830 3 429
[*,1,5,9]  1 701 2 33 3 80
[*,2,5,9]  1 148 2 44 3 490
[*,3,5,9]  1 335 2 858 3 39
[*,4,5,9]  1 46 2 799 3 25
[*,5,5,9]  1 304 2 211 3 259
[*,6,5,9]  1 557 2 393 3 555
[*,7,5,9]  1 103 2 40 3 207
[*,8,5,9]  1 288 2 940 3 771
[*,9,5,9]  1 163 2 722 3 942
[*,10,5,9]  1 487 2 389 3 133
[*,1,6,9]  1 819 2 23 3 663
[*,2,6,9]  1 569 2 639 3 967
[*,3,6,9]  1 143 2 169 3 377
[*,4,6,9]  1 970 2 214 3 893
[*,5,6,9]  1 172 2 617 3 908
[*,6,6,9]  1 932 2 727 3 556
[*,7,6,9]  1 448 2 674 3 226
[*,8,6,9]  1 187 2 448 3 820
[*,9,6,9]  1 416 2 368 3 125
[*,10,6,9]  1 120 2 200 3 416
[*,1,7,9]  1 746 2 278 3 250
[*,2,7,9]  1 221 2 144 3 734
[*,3,7,9]  1 602 2 412 3 819
[*,4,7,9]  1 413 2 181 3 324
[*,5,7,9]  1 550 2 49 3 504
[*,6,7,9]  1 8 2 959 3 327
[*,7,7,9]  1 554 2 617 3 688
[*,8,7,9]  1 948 2 976 3 286
[*,9,7,9]  1 142 2 688 3 276
[*,10,7,9]  1 95 2 860 3 662
[*,1,8,9]  1 687 2 724 3 580
[*,2,8,9]  1 287 2 704 3 221
[*,3,8,9]  1 85 2 909 3 87
[*,4,8,9]  1 690 2 662 3 641
[*,5,8,9]  1 290 2 729 3 850
[*,6,8,9]  1 758 2 855 3 224
[*,7,8,9]  1 774 2 859 3 312
[*,8,8,9]  1 433 2 924 3 145
[*,9,8,9]  1 529 2 325 3 730
[*,10,8,9]  1 339 2 206 3 861
[*,1,9,9]  1 654 2 186 3 507
[*,2,9,9]  1 188 2 810 3 36
[*,3,9,9]  1 330 2 778 3 309
[*,4,9,9]  1 657 2 835 3 117
[*,5,9,9]  1 636 2 334 3 197
[*,6,9,9]  1 965 2 357 3 313
[*,7,9,9]  1 453 2 47 3 377
[*,8,9,9]  1 778 2 477 3 799
[*,9,9,9]  1 785 2 933 3 845
[*,10,9,9]  1 909 2 25 3 202
[*,1,10,9]  1 324 2 502 3 824
[*,2,10,9]  1 216 2 243 3 262
[*,3,10,9]  1 726 2 22 3 824
[*,4,10,9]  1 110 2 694 3 962
[*,5,10,9]  1 834 2 949 3 397
[*,6,10,9]  1 687 2 620 3 516
[*,7,10,9]  1 229 2 130 3 625
[*,8,10,9]  1 662 2 141 3 592
[*,9,10,9]  1 12 2 147 3 504
[*,10,10,9]  1 731 2 912 3 701
[*,1,1,10]  1 174 2 959 3 79
[*,2,1,10]  1 142 2 806 3 628
[*,3,1,10]  1 512 2 325 3 254
[*,4,1,10]  1 440 2 630 3 67
[*,5,1,10]  1 592 2 712 3 193
[*,6,1,10]  1 434 2 874 3 493
[*,7,1,10]  1 30 2 545 3 277
[*,8,1,10]  1 33 2 980 3 522
[*,9,1,10]  1 674 2 771 3 213
[*,10,1,10]  1 343 2 973 3 835
[*,1,2,10]  1 240 2 122 3 844
[*,2,2,10]  1 55 2 411 3 785
[*,3,2,10]  1 525 2 583 3 774
[*,4,2,10]  1 192 2 467 3 520
[*,5,2,10]  1 416 2 531 3 501
[*,6,2,10]  1 448 2 265 3 145
[*,7,2,10]  1 88 2 301 3 434
[*,8,2,10]  1 106 2 940 3 815
[*,9,2,10]  1 844 2 490 3 954
[*,10,2,10]  1 701 2 801 3 708
[*,1,3,10]  1 21 2 775 3 615
[*,2,3,10]  1 287 2 680 3 488
[*,3,3,10]  1 148 2 159 3 995
[*,4,3,10]  1 704 2 393 3 868
[*,5,3,10]  1 347 2 109 3 790
[*,6,3,10]  1 86 2 979 3 346
[*,7,3,10]  1 14 2 538 3 238
[*,8,3,10]  1 805 2 396 3 633
[*,9,3,10]  1 518 2 32 3 949
[*,10,3,10]  1 213 2 721 3 899
[*,1,4,10]  1 255 2 313 3 979
[*,2,4,10]  1 935 2 88 3 195
[*,3,4,10]  1 9 2 809 3 664
[*,4,4,10]  1 829 2 174 3 499
[*,5,4,10]  1 950 2 547 3 803
[*,6,4,10]  1 508 2 256 3 929
[*,7,4,10]  1 816 2 461 3 645
[*,8,4,10]  1 770 2 13 3 485
[*,9,4,10]  1 324 2 650 3 657
[*,10,4,10]  1 64 2 360 3 753
[*,1,5,10]  1 112 2 465 3 415
[*,2,5,10]  1 515 2 451 3 408
[*,3,5,10]  1 230 2 180 3 785
[*,4,5,10]  1 406 2 779 3 525
[*,5,5,10]  1 77 2 40 3 795
[*,6,5,10]  1 876 2 924 3 545
[*,7,5,10]  1 444 2 19 3 450
[*,8,5,10]  1 209 2 463 3 769
[*,9,5,10]  1 178 2 515 3 992
[*,10,5,10]  1 751 2 76 3 410
[*,1,6,10]  1 668 2 463 3 553
[*,2,6,10]  1 795 2 312 3 742
[*,3,6,10]  1 377 2 124 3 622
[*,4,6,10]  1 596 2 784 3 19
[*,5,6,10]  1 915 2 762 3 127
[*,6,6,10]  1 893 2 864 3 454
[*,7,6,10]  1 499 2 920 3 562
[*,8,6,10]  1 510 2 643 3 116
[*,9,6,10]  1 12 2 551 3 391
[*,10,6,10]  1 898 2 315 3 827
[*,1,7,10]  1 556 2 241 3 417
[*,2,7,10]  1 125 2 890 3 534
[*,3,7,10]  1 263 2 526 3 316
[*,4,7,10]  1 202 2 605 3 760
[*,5,7,10]  1 65 2 516 3 494
[*,6,7,10]  1 673 2 763 3 286
[*,7,7,10]  1 731 2 588 3 781
[*,8,7,10]  1 778 2 120 3 390
[*,9,7,10]  1 388 2 802 3 435
[*,10,7,10]  1 788 2 285 3 864
[*,1,8,10]  1 392 2 531 3 157
[*,2,8,10]  1 205 2 794 3 325
[*,3,8,10]  1 780 2 789 3 214
[*,4,8,10]  1 796 2 995 3 569
[*,5,8,10]  1 280 2 149 3 669
[*,6,8,10]  1 902 2 603 3 113
[*,7,8,10]  1 294 2 545 3 928
[*,8,8,10]  1 297 2 494 3 547
[*,9,8,10]  1 898 2 406 3 90
[*,10,8,10]  1 216 2 99 3 620
[*,1,9,10]  1 788 2 517 3 769
[*,2,9,10]  1 10 2 718 3 473
[*,3,9,10]  1 558 2 81 3 329
[*,4,9,10]  1 580 2 327 3 404
[*,5,9,10]  1 96 2 824 3 751
[*,6,9,10]  1 841 2 555 3 602
[*,7,9,10]  1 882 2 13 3 12
[*,8,9,10]  1 767 2 493 3 571
[*,9,9,10]  1 98 2 24 3 149
[*,10,9,10]  1 219 2 981 3 135
[*,1,10,10]  1 469 2 731 3 700
[*,2,10,10]  1 732 2 971 3 875
[*,3,10,10]  1 570 2 46 3 231
[*,4,10,10]  1 727 2 983 3 559
[*,5,10,10]  1 822 2 926 3 314
[*,6,10,10]  1 352 2 622 3 200
[*,7,10,10]  1 821 2 975 3 688
[*,8,10,10]  1 971 2 544 3 744
[*,9,10,10]  1 788 2 871 3 304
[*,10,10,10]  1 701 2 83 3 821;

#param U :=  1 997.0 2 999.0 3 997.0;
#param pu :=  1 999.0 2 1000.0 3 999.0;
#param pl :=  1 2.0 2 1.0 3 2.0;
